#######################
Slurm job id: 17497813_70
Running on machine: p45
Running cmd: /nfs/shared/static-builds/gurobi1003 SOFTMEMLIMIT=125 MIPFocus=2 Presolve=2 TimeLimit=500 seed=19 /nfs/models/miplib2010/k16x240.mps.bz2
#######################
Set parameter TimeLimit to value 500
Set parameter SoftMemLimit to value 125
Set parameter MIPFocus to value 2
Set parameter LogFile to value 1003-MIPFocus2-Presolve2-TimeLimit500-k16x240-9.log
Set parameter Presolve to value 2
Set parameter Seed to value 19
Using license file /opt/gurobi/gurobi.lic

Gurobi Optimizer version 10.0.3 build v10.0.3rc0 (linux64)
Copyright (c) 2023, Gurobi Optimization, LLC

Read MPS format model from file /nfs/models/miplib2010/k16x240.mps.bz2
Reading time = 0.00 seconds
k16x240: 256 rows, 480 columns, 960 nonzeros

CPU model: Intel(R) Xeon(R) E-2388G CPU @ 3.20GHz, instruction set [SSE2|AVX|AVX2|AVX512]
Thread count: 8 physical cores, 16 logical processors, using up to 16 threads

Optimize a model with 256 rows, 480 columns and 960 nonzeros
Model fingerprint: 0x4e80885f
Variable types: 240 continuous, 240 integer (240 binary)
Coefficient statistics:
  Matrix range     [1e+00, 1e+03]
  Objective range  [1e+00, 1e+03]
  Bounds range     [1e+00, 1e+03]
  RHS range        [4e+00, 4e+02]
Found heuristic solution: objective 17517.000000
Presolve time: 0.00s
Presolved: 256 rows, 480 columns, 960 nonzeros
Variable types: 240 continuous, 240 integer (240 binary)
Root relaxation presolve removed 241 rows and 240 columns
Root relaxation presolved: 15 rows, 240 columns, 450 nonzeros


Root relaxation: objective 2.769838e+03, 16 iterations, 0.00 seconds (0.00 work units)

    Nodes    |    Current Node    |     Objective Bounds      |     Work
 Expl Unexpl |  Obj  Depth IntInf | Incumbent    BestBd   Gap | It/Node Time

     0     0 2769.83800    0   14 17517.0000 2769.83800  84.2%     -    0s
H    0     0                    11359.000000 2769.83800  75.6%     -    0s
H    0     0                    11154.000000 8116.87580  27.2%     -    0s
     0     0 8116.87580    0   26 11154.0000 8116.87580  27.2%     -    0s
H    0     0                    11074.000000 8116.87580  26.7%     -    0s
     0     0 8571.49855    0   28 11074.0000 8571.49855  22.6%     -    0s
H    0     0                    11001.000000 8595.10166  21.9%     -    0s
     0     0 8595.10166    0   26 11001.0000 8595.10166  21.9%     -    0s
     0     0 8728.09365    0   22 11001.0000 8728.09365  20.7%     -    0s
H    0     0                    10917.000000 8728.09365  20.1%     -    0s
H    0     0                    10779.000000 8786.97548  18.5%     -    0s
     0     0 8786.97548    0   20 10779.0000 8786.97548  18.5%     -    0s
     0     0 8818.89568    0   35 10779.0000 8818.89568  18.2%     -    0s
     0     0 8819.35747    0   37 10779.0000 8819.35747  18.2%     -    0s
     0     0 8970.83107    0   34 10779.0000 8970.83107  16.8%     -    0s
     0     0 8986.64707    0   38 10779.0000 8986.64707  16.6%     -    0s
     0     0 8990.56908    0   37 10779.0000 8990.56908  16.6%     -    0s
     0     0 9065.83434    0   29 10779.0000 9065.83434  15.9%     -    0s
     0     0 9081.06038    0   30 10779.0000 9081.06038  15.8%     -    0s
     0     0 9102.29743    0   40 10779.0000 9102.29743  15.6%     -    0s
     0     0 9102.29743    0   40 10779.0000 9102.29743  15.6%     -    0s
     0     2 9102.29743    0   40 10779.0000 9102.29743  15.6%     -    0s
H   32    40                    10744.000000 9188.30761  14.5%  49.4    0s
H   33    40                    10681.000000 9188.30761  14.0%  48.5    0s
H 1028   771                    10678.000000 9364.64024  12.3%  18.1    0s
H 1557   999                    10674.000000 9444.12166  11.5%  18.2    0s
 25154 10176 10644.3694   28   27 10674.0000 10024.0588  6.09%  29.1    5s
 65115 18942     cutoff   29      10674.0000 10198.0539  4.46%  29.7   10s
 99163 21204 10391.5470   30   15 10674.0000 10297.3063  3.53%  30.1   15s
 134410 18010 10658.1476   27   18 10674.0000 10394.9560  2.61%  30.3   20s
 169678  5152     cutoff   38      10674.0000 10531.6950  1.33%  29.9   25s

Cutting planes:
  Gomory: 1
  Lift-and-project: 10
  Cover: 72
  Implied bound: 17
  MIR: 224
  Flow cover: 317
  Flow path: 40
  Inf proof: 3
  Zero half: 11
  Network: 50
  Relax-and-lift: 2

Explored 178072 nodes (5217364 simplex iterations) in 25.94 seconds (41.12 work units)
Thread count was 16 (of 16 available processors)

Solution count 10: 10674 10678 10681 ... 11359

Optimal solution found (tolerance 1.00e-04)
Best objective 1.067400000000e+04, best bound 1.067400000000e+04, gap 0.0000%
